Day	0	Optimize a model with 6138 rows, 70874 columns and 872783 nonzeros
Variable types: 532 continuous, 70342 integer (68942 binary)
Coefficient statistics:
  Matrix range     [1e+00, 2e+02]
  Objective range  [1e+00, 3e+03]
  Bounds range     [1e+00, 1e+02]
  RHS range        [1e+00, 6e+03]
Found heuristic solution: objective 801789
Presolve removed 551 rows and 9487 columns
Presolve time: 2.40s
Presolved: 5587 rows, 61387 columns, 681101 nonzeros
Variable types: 0 continuous, 61387 integer (60015 binary)

Root relaxation: objective 6.577110e+05, 839 iterations, 0.10 seconds

    Nodes    |    Current Node    |     Objective Bounds      |     Work
 Expl Unexpl |  Obj  Depth IntInf | Incumbent    BestBd   Gap | It/Node Time

     0     0 657711.000    0  102 801789.000 657711.000  18.0%     -    3s
H    0     0                    658510.00000 657711.000  0.12%     -    3s
H    0     0                    658000.00000 657711.000  0.04%     -    3s
     0     0 657838.667    0  182 658000.000 657838.667  0.02%     -    4s
     0     0 657838.667    0  154 658000.000 657838.667  0.02%     -    6s
     0     0 657873.667    0   48 658000.000 657873.667  0.02%     -    6s
     0     0 657897.667    0   93 658000.000 657897.667  0.02%     -    6s
     0     0 657998.333    0   13 658000.000 657998.333  0.00%     -    6s

Cutting planes:
  Gomory: 21
  Cover: 128
  Clique: 110
  MIR: 156

Explored 0 nodes (3837 simplex iterations) in 6.43 seconds
Thread count was 1 (of 16 available processors)

Solution count 4: 658000 658510 658510 801789 
Pool objective bound 657999

Optimal solution found (tolerance 1.00e-04)
Best objective 6.580000000000e+05, best bound 6.579990000000e+05, gap 0.0002%
	MIPObjVal:	658000.0	runtime:	6.432254076004028	patientsNumber:	202	room Occupancy:	0.1622222222222222	OR Occupancy:	0.15064803905066487
roomCost:	7660.0	genderPolicy:	0.0	transferCost:	600.0	delayCost:	80.0	overCrowdRisk:	0.0	overtime:	0.0	idleRoom:	105360.0	idleOR:	544300.0	eRoomIdle:	0.0	eORIdle:	0.0	roomU:	0.0	orU:	0.0
Day	1	Optimize a model with 5931 rows, 67083 columns and 763308 nonzeros
Variable types: 513 continuous, 66570 integer (65220 binary)
Coefficient statistics:
  Matrix range     [1e+00, 2e+02]
  Objective range  [1e+00, 3e+03]
  Bounds range     [1e+00, 1e+02]
  RHS range        [1e+00, 6e+03]
Found heuristic solution: objective 721396
Presolve removed 556 rows and 8904 columns
Presolve time: 2.10s
Presolved: 5375 rows, 58179 columns, 594413 nonzeros
Variable types: 0 continuous, 58179 integer (56878 binary)

Root relaxation: objective 5.871980e+05, 831 iterations, 0.10 seconds

    Nodes    |    Current Node    |     Objective Bounds      |     Work
 Expl Unexpl |  Obj  Depth IntInf | Incumbent    BestBd   Gap | It/Node Time

     0     0 587198.000    0  104 721396.000 587198.000  18.6%     -    2s
H    0     0                    588846.00000 587198.000  0.28%     -    2s
H    0     0                    588567.00000 587198.000  0.23%     -    3s
H    0     0                    587517.00000 587198.000  0.05%     -    3s
     0     0 587471.927    0   79 587517.000 587471.927  0.01%     -    3s

Cutting planes:
  Cover: 76
  Clique: 78
  MIR: 85

Explored 0 nodes (1755 simplex iterations) in 3.52 seconds
Thread count was 1 (of 16 available processors)

Solution count 4: 587517 588567 588846 721396 
Pool objective bound 587472

Optimal solution found (tolerance 1.00e-04)
Best objective 5.875170000000e+05, best bound 5.874720000000e+05, gap 0.0077%
	MIPObjVal:	587517.0	runtime:	3.517867088317871	patientsNumber:	207	room Occupancy:	0.20222222222222222	OR Occupancy:	0.24743309207204175
roomCost:	7790.0	genderPolicy:	0.0	transferCost:	0.0	delayCost:	275.0	overCrowdRisk:	2.0	overtime:	0.0	idleRoom:	96300.0	idleOR:	483150.0	eRoomIdle:	0.0	eORIdle:	0.0	roomU:	0.0	orU:	0.0
Day	2	Optimize a model with 5734 rows, 63124 columns and 656457 nonzeros
Variable types: 494 continuous, 62630 integer (61330 binary)
Coefficient statistics:
  Matrix range     [1e+00, 2e+02]
  Objective range  [1e+00, 2e+03]
  Bounds range     [1e+00, 1e+02]
  RHS range        [1e+00, 6e+03]
Found heuristic solution: objective 646781
Presolve removed 634 rows and 8607 columns
Presolve time: 1.82s
Presolved: 5100 rows, 54517 columns, 501368 nonzeros
Variable types: 0 continuous, 54517 integer (53314 binary)

Root relaxation: objective 5.238830e+05, 889 iterations, 0.10 seconds

    Nodes    |    Current Node    |     Objective Bounds      |     Work
 Expl Unexpl |  Obj  Depth IntInf | Incumbent    BestBd   Gap | It/Node Time

     0     0 523883.000    0  116 646781.000 523883.000  19.0%     -    2s
H    0     0                    528812.00000 523883.000  0.93%     -    2s
H    0     0                    526012.00000 523883.000  0.40%     -    2s
H    0     0                    524182.00000 523883.000  0.06%     -    2s
     0     0 524074.262    0  120 524182.000 524074.262  0.02%     -    3s
     0     0 524074.262    0   93 524182.000 524074.262  0.02%     -    4s
     0     0 524095.854    0  114 524182.000 524095.854  0.02%     -    4s
     0     0 524112.311    0   82 524182.000 524112.311  0.01%     -    4s
*    0     0               0    524132.00000 524132.000  0.00%     -    4s

Cutting planes:
  Gomory: 19
  Cover: 72
  Clique: 116
  MIR: 66

Explored 0 nodes (3543 simplex iterations) in 4.93 seconds
Thread count was 1 (of 16 available processors)

Solution count 5: 524132 524182 526012 ... 646781
Pool objective bound 524132

Optimal solution found (tolerance 1.00e-04)
Best objective 5.241320000000e+05, best bound 5.241320000000e+05, gap 0.0000%
	MIPObjVal:	524132.0	runtime:	4.932835817337036	patientsNumber:	222	room Occupancy:	0.17555555555555555	OR Occupancy:	0.0
roomCost:	7950.0	genderPolicy:	0.0	transferCost:	0.0	delayCost:	200.0	overCrowdRisk:	2.0	overtime:	0.0	idleRoom:	87280.0	idleOR:	428700.0	eRoomIdle:	0.0	eORIdle:	0.0	roomU:	0.0	orU:	0.0
Day	3	Optimize a model with 5538 rows, 72948 columns and 786865 nonzeros
Variable types: 475 continuous, 72473 integer (71223 binary)
Coefficient statistics:
  Matrix range     [1e+00, 2e+02]
  Objective range  [1e+00, 2e+03]
  Bounds range     [1e+00, 1e+02]
  RHS range        [1e+00, 6e+03]
Found heuristic solution: objective 651816
Presolve removed 496 rows and 10139 columns
Presolve time: 1.97s
Presolved: 5042 rows, 62809 columns, 600622 nonzeros
Variable types: 0 continuous, 62809 integer (61591 binary)

Root relaxation: objective 5.042270e+05, 974 iterations, 0.10 seconds

    Nodes    |    Current Node    |     Objective Bounds      |     Work
 Expl Unexpl |  Obj  Depth IntInf | Incumbent    BestBd   Gap | It/Node Time

     0     0 504227.000    0   98 651816.000 504227.000  22.6%     -    2s
H    0     0                    509758.00000 504227.000  1.09%     -    2s
H    0     0                    506257.00000 504227.000  0.40%     -    2s
H    0     0                    504529.00000 504227.000  0.06%     -    3s
     0     0 504438.092    0  151 504529.000 504438.092  0.02%     -    3s
     0     0 504438.092    0  132 504529.000 504438.092  0.02%     -    5s
     0     0 504438.092    0  134 504529.000 504438.092  0.02%     -    5s
     0     0 504444.992    0  126 504529.000 504444.992  0.02%     -    5s
     0     0 504519.236    0  113 504529.000 504519.236  0.00%     -    5s

Cutting planes:
  Gomory: 23
  Cover: 122
  Clique: 137
  MIR: 112
  GUB cover: 2
  Zero half: 4

Explored 0 nodes (4684 simplex iterations) in 5.58 seconds
Thread count was 1 (of 16 available processors)

Solution count 5: 504529 506257 506257 ... 651816
Pool objective bound 504520

Optimal solution found (tolerance 1.00e-04)
Best objective 5.045290000000e+05, best bound 5.045200000000e+05, gap 0.0018%
	MIPObjVal:	504529.0	runtime:	5.585422992706299	patientsNumber:	238	room Occupancy:	0.1511111111111111	OR Occupancy:	0.0
roomCost:	8960.0	genderPolicy:	0.0	transferCost:	0.0	delayCost:	55.0	overCrowdRisk:	4.0	overtime:	0.0	idleRoom:	77460.0	idleOR:	418050.0	eRoomIdle:	0.0	eORIdle:	0.0	roomU:	0.0	orU:	0.0
Day	4	Optimize a model with 5342 rows, 79976 columns and 863058 nonzeros
Variable types: 456 continuous, 79520 integer (78320 binary)
Coefficient statistics:
  Matrix range     [1e+00, 2e+02]
  Objective range  [1e+00, 2e+03]
  Bounds range     [1e+00, 1e+02]
  RHS range        [1e+00, 6e+03]
Found heuristic solution: objective 637598
Presolve removed 468 rows and 11032 columns
Presolve time: 1.91s
Presolved: 4874 rows, 68944 columns, 660702 nonzeros
Variable types: 0 continuous, 68944 integer (67767 binary)

Root relaxation: objective 4.899330e+05, 1061 iterations, 0.09 seconds

    Nodes    |    Current Node    |     Objective Bounds      |     Work
 Expl Unexpl |  Obj  Depth IntInf | Incumbent    BestBd   Gap | It/Node Time

     0     0 489933.000    0  158 637598.000 489933.000  23.2%     -    2s
H    0     0                    497363.00000 489933.000  1.49%     -    2s
H    0     0                    492733.00000 489933.000  0.57%     -    2s
H    0     0                    490234.00000 489933.000  0.06%     -    3s
     0     0 490137.463    0  160 490234.000 490137.463  0.02%     -    3s
     0     0 490137.463    0  158 490234.000 490137.463  0.02%     -    5s
     0     0 490137.463    0  129 490234.000 490137.463  0.02%     -    5s
     0     0 490147.808    0   86 490234.000 490147.808  0.02%     -    5s
     0     0 490201.970    0   30 490234.000 490201.970  0.01%     -    5s

Cutting planes:
  Gomory: 23
  Cover: 129
  Clique: 213
  MIR: 148

Explored 0 nodes (5122 simplex iterations) in 5.93 seconds
Thread count was 1 (of 16 available processors)

Solution count 5: 490234 492733 492733 ... 637598
Pool objective bound 490202

Optimal solution found (tolerance 1.00e-04)
Best objective 4.902340000000e+05, best bound 4.902020000000e+05, gap 0.0065%
	MIPObjVal:	490234.0	runtime:	5.9335010051727295	patientsNumber:	254	room Occupancy:	0.22444444444444445	OR Occupancy:	0.17589631375189363
roomCost:	9520.0	genderPolicy:	0.0	transferCost:	0.0	delayCost:	0.0	overCrowdRisk:	4.0	overtime:	0.0	idleRoom:	68260.0	idleOR:	412450.0	eRoomIdle:	0.0	eORIdle:	0.0	roomU:	0.0	orU:	0.0
Day	5	Optimize a model with 5135 rows, 71142 columns and 762722 nonzeros
Variable types: 437 continuous, 70705 integer (69555 binary)
Coefficient statistics:
  Matrix range     [1e+00, 2e+02]
  Objective range  [1e+00, 2e+03]
  Bounds range     [1e+00, 1e+02]
  RHS range        [1e+00, 6e+03]
Found heuristic solution: objective 566912
Presolve removed 452 rows and 10930 columns
Presolve time: 1.60s
Presolved: 4683 rows, 60212 columns, 575112 nonzeros
Variable types: 0 continuous, 60212 integer (59087 binary)

Root relaxation: objective 4.196260e+05, 1131 iterations, 0.09 seconds

    Nodes    |    Current Node    |     Objective Bounds      |     Work
 Expl Unexpl |  Obj  Depth IntInf | Incumbent    BestBd   Gap | It/Node Time

     0     0 419626.000    0  120 566912.000 419626.000  26.0%     -    1s
H    0     0                    421672.00000 419626.000  0.49%     -    2s
H    0     0                    420023.00000 419626.000  0.09%     -    2s
     0     0 419858.708    0  120 420023.000 419858.708  0.04%     -    2s
     0     0 419858.708    0  142 420023.000 419858.708  0.04%     -    5s
     0     0 419881.158    0  160 420023.000 419881.158  0.03%     -    5s
     0     0 419893.100    0  159 420023.000 419893.100  0.03%     -    5s
     0     0 419950.530    0  121 420023.000 419950.530  0.02%     -    5s
     0     2 419989.778    0  115 420023.000 419989.778  0.01%     -    5s

Cutting planes:
  Gomory: 26
  Cover: 111
  Clique: 226
  MIR: 116
  GUB cover: 1

Explored 1 nodes (5060 simplex iterations) in 5.86 seconds
Thread count was 1 (of 16 available processors)

Solution count 4: 420023 421672 421672 566912 
Pool objective bound 419990

Optimal solution found (tolerance 1.00e-04)
Best objective 4.200230000000e+05, best bound 4.199900000000e+05, gap 0.0079%
	MIPObjVal:	420023.0	runtime:	5.860839128494263	patientsNumber:	259	room Occupancy:	0.2644444444444444	OR Occupancy:	0.17168826796835548
roomCost:	10800.0	genderPolicy:	50.0	transferCost:	0.0	delayCost:	0.0	overCrowdRisk:	3.0	overtime:	0.0	idleRoom:	59020.0	idleOR:	350150.0	eRoomIdle:	0.0	eORIdle:	0.0	roomU:	0.0	orU:	0.0
Day	6	Optimize a model with 4935 rows, 68530 columns and 646256 nonzeros
Variable types: 418 continuous, 68112 integer (67012 binary)
Coefficient statistics:
  Matrix range     [1e+00, 2e+02]
  Objective range  [1e+00, 2e+03]
  Bounds range     [1e+00, 1e+02]
  RHS range        [1e+00, 6e+03]
Found heuristic solution: objective 477318
Presolve removed 433 rows and 10424 columns
Presolve time: 1.36s
Presolved: 4502 rows, 58106 columns, 476682 nonzeros
Variable types: 0 continuous, 58106 integer (57032 binary)

Root relaxation: objective 3.527430e+05, 1198 iterations, 0.08 seconds

    Nodes    |    Current Node    |     Objective Bounds      |     Work
 Expl Unexpl |  Obj  Depth IntInf | Incumbent    BestBd   Gap | It/Node Time

     0     0 352743.000    0  100 477318.000 352743.000  26.1%     -    1s
H    0     0                    356562.00000 352743.000  1.07%     -    1s
H    0     0                    354383.00000 352743.000  0.46%     -    1s
H    0     0                    353248.00000 352743.000  0.14%     -    2s
     0     0 353074.389    0  123 353248.000 353074.389  0.05%     -    2s
     0     0 353074.389    0  102 353248.000 353074.389  0.05%     -    4s
     0     0 353074.389    0  138 353248.000 353074.389  0.05%     -    4s
     0     0 353113.653    0  149 353248.000 353113.653  0.04%     -    5s
     0     0 353190.667    0   26 353248.000 353190.667  0.02%     -    5s
     0     2 353202.667    0   24 353248.000 353202.667  0.01%     -    5s

Cutting planes:
  Gomory: 12
  Cover: 23
  Clique: 12
  MIR: 14
  Flow cover: 9
  GUB cover: 1
  Zero half: 4

Explored 7 nodes (5591 simplex iterations) in 5.75 seconds
Thread count was 1 (of 16 available processors)

Solution count 5: 353248 354383 356562 ... 477318
Pool objective bound 353223

Optimal solution found (tolerance 1.00e-04)
Best objective 3.532480000000e+05, best bound 3.532230000000e+05, gap 0.0071%
	MIPObjVal:	353248.0	runtime:	5.751245975494385	patientsNumber:	271	room Occupancy:	0.3244444444444444	OR Occupancy:	0.2533243561689951
roomCost:	10760.0	genderPolicy:	150.0	transferCost:	0.0	delayCost:	35.0	overCrowdRisk:	3.0	overtime:	0.0	idleRoom:	50900.0	idleOR:	291400.0	eRoomIdle:	0.0	eORIdle:	0.0	roomU:	0.0	orU:	0.0
Day	7	Optimize a model with 4729 rows, 60324 columns and 539174 nonzeros
Variable types: 399 continuous, 59925 integer (58875 binary)
Coefficient statistics:
  Matrix range     [1e+00, 2e+02]
  Objective range  [1e+00, 2e+03]
  Bounds range     [1e+00, 1e+02]
  RHS range        [1e+00, 6e+03]
Found heuristic solution: objective 417061
Presolve removed 421 rows and 9059 columns
Presolve time: 1.12s
Presolved: 4308 rows, 51265 columns, 402709 nonzeros
Variable types: 0 continuous, 51265 integer (50247 binary)

Root relaxation: objective 2.900540e+05, 1226 iterations, 0.07 seconds

    Nodes    |    Current Node    |     Objective Bounds      |     Work
 Expl Unexpl |  Obj  Depth IntInf | Incumbent    BestBd   Gap | It/Node Time

     0     0 290054.000    0  106 417061.000 290054.000  30.5%     -    1s
H    0     0                    292447.00000 290054.000  0.82%     -    1s
H    0     0                    291808.00000 290054.000  0.60%     -    1s
H    0     0                    290604.00000 290054.000  0.19%     -    1s
     0     0 290416.986    0   94 290604.000 290416.986  0.06%     -    1s
     0     0 290416.986    0   98 290604.000 290416.986  0.06%     -    3s
H    0     0                    290603.00000 290416.986  0.06%     -    3s
     0     0 290416.986    0  104 290603.000 290416.986  0.06%     -    4s
     0     0 290418.042    0   97 290603.000 290418.042  0.06%     -    4s
     0     0 290543.819    0  102 290603.000 290543.819  0.02%     -    4s
     0     1 290544.104    0  100 290603.000 290544.104  0.02%     -    4s
     2     2 290544.104    0   94 290603.000 290544.104  0.02%  94.5    5s

Cutting planes:
  Gomory: 4
  Cover: 8
  Clique: 6
  MIR: 1
  Flow cover: 5

Explored 4 nodes (5409 simplex iterations) in 5.08 seconds
Thread count was 1 (of 16 available processors)

Solution count 7: 290603 290603 290604 ... 417061
Pool objective bound 290578

Optimal solution found (tolerance 1.00e-04)
Best objective 2.906030000000e+05, best bound 2.905780000000e+05, gap 0.0086%
	MIPObjVal:	290603.0	runtime:	5.0813069343566895	patientsNumber:	277	room Occupancy:	0.35555555555555557	OR Occupancy:	0.2726813667732705
roomCost:	11130.0	genderPolicy:	0.0	transferCost:	0.0	delayCost:	0.0	overCrowdRisk:	3.0	overtime:	0.0	idleRoom:	42820.0	idleOR:	236650.0	eRoomIdle:	0.0	eORIdle:	0.0	roomU:	0.0	orU:	0.0
Day	8	Optimize a model with 4537 rows, 61607 columns and 476682 nonzeros
Variable types: 380 continuous, 61227 integer (60227 binary)
Coefficient statistics:
  Matrix range     [1e+00, 2e+02]
  Objective range  [1e+00, 2e+03]
  Bounds range     [1e+00, 1e+02]
  RHS range        [1e+00, 6e+03]
Found heuristic solution: objective 342738
Presolve removed 401 rows and 8515 columns
Presolve time: 0.96s
Presolved: 4136 rows, 53092 columns, 358543 nonzeros
Variable types: 0 continuous, 53092 integer (52124 binary)

Root relaxation: objective 2.225430e+05, 1086 iterations, 0.06 seconds

    Nodes    |    Current Node    |     Objective Bounds      |     Work
 Expl Unexpl |  Obj  Depth IntInf | Incumbent    BestBd   Gap | It/Node Time

     0     0 222543.000    0  114 342738.000 222543.000  35.1%     -    1s
H    0     0                    225093.00000 222543.000  1.13%     -    1s
H    0     0                    222888.00000 222543.000  0.15%     -    1s
     0     0 222766.000    0   21 222888.000 222766.000  0.05%     -    1s
     0     0 222766.000    0  110 222888.000 222766.000  0.05%     -    3s
     0     0 222787.234    0   97 222888.000 222787.234  0.05%     -    3s
     0     0 222805.833    0   63 222888.000 222805.833  0.04%     -    3s
     0     0 222849.000    0   16 222888.000 222849.000  0.02%     -    3s
     0     1 222849.250    0   14 222888.000 222849.250  0.02%     -    3s

Explored 3 nodes (5212 simplex iterations) in 3.90 seconds
Thread count was 1 (of 16 available processors)

Solution count 5: 222888 222888 222943 ... 342738
Pool objective bound 222880

Optimal solution found (tolerance 1.00e-04)
Best objective 2.228880000000e+05, best bound 2.228800000000e+05, gap 0.0036%
	MIPObjVal:	222888.0	runtime:	3.906083822250366	patientsNumber:	297	room Occupancy:	0.3977777777777778	OR Occupancy:	0.30045446894462213
roomCost:	10510.0	genderPolicy:	0.0	transferCost:	0.0	delayCost:	105.0	overCrowdRisk:	3.0	overtime:	0.0	idleRoom:	35020.0	idleOR:	177250.0	eRoomIdle:	0.0	eORIdle:	0.0	roomU:	0.0	orU:	0.0
Day	9	Optimize a model with 4324 rows, 54063 columns and 342049 nonzeros
Variable types: 361 continuous, 53702 integer (52752 binary)
Coefficient statistics:
  Matrix range     [1e+00, 2e+02]
  Objective range  [1e+00, 2e+03]
  Bounds range     [1e+00, 1e+02]
  RHS range        [1e+00, 6e+03]
Found heuristic solution: objective 269311
Presolve removed 485 rows and 7765 columns
Presolve time: 0.62s
Presolved: 3839 rows, 46298 columns, 249807 nonzeros
Variable types: 0 continuous, 46298 integer (45431 binary)

Root relaxation: objective 1.598530e+05, 963 iterations, 0.05 seconds

    Nodes    |    Current Node    |     Objective Bounds      |     Work
 Expl Unexpl |  Obj  Depth IntInf | Incumbent    BestBd   Gap | It/Node Time

     0     0 159853.000    0   66 269311.000 159853.000  40.6%     -    0s
H    0     0                    162064.00000 159853.000  1.36%     -    0s
H    0     0                    160988.00000 159853.000  0.71%     -    0s
H    0     0                    160158.00000 159853.000  0.19%     -    1s
     0     0 160049.000    0   23 160158.000 160049.000  0.07%     -    1s
     0     0 160049.000    0   70 160158.000 160049.000  0.07%     -    2s
H    0     0                    160149.00000 160049.000  0.06%     -    2s
     0     0 160057.333    0   49 160149.000 160057.333  0.06%     -    2s
     0     0 160074.500    0   56 160149.000 160074.500  0.05%     -    2s
     0     0 160137.667    0    9 160149.000 160137.667  0.01%     -    2s

Cutting planes:
  Gomory: 24
  Cover: 56
  Clique: 92
  MIR: 73

Explored 0 nodes (3973 simplex iterations) in 2.55 seconds
Thread count was 1 (of 16 available processors)

Solution count 6: 160149 160158 160158 ... 269311
Pool objective bound 160138

Optimal solution found (tolerance 1.00e-04)
Best objective 1.601490000000e+05, best bound 1.601380000000e+05, gap 0.0069%
	MIPObjVal:	160149.0	runtime:	2.5502779483795166	patientsNumber:	296	room Occupancy:	0.33555555555555555	OR Occupancy:	0.0
roomCost:	9100.0	genderPolicy:	0.0	transferCost:	0.0	delayCost:	65.0	overCrowdRisk:	4.0	overtime:	0.0	idleRoom:	28780.0	idleOR:	122200.0	eRoomIdle:	0.0	eORIdle:	0.0	roomU:	0.0	orU:	0.0
Day	10	Optimize a model with 4126 rows, 62957 columns and 393540 nonzeros
Variable types: 342 continuous, 62615 integer (61715 binary)
Coefficient statistics:
  Matrix range     [1e+00, 2e+02]
  Objective range  [1e+00, 2e+03]
  Bounds range     [1e+00, 1e+02]
  RHS range        [1e+00, 6e+03]
Found heuristic solution: objective 254343
Presolve removed 358 rows and 8730 columns
Presolve time: 0.75s
Presolved: 3768 rows, 54227 columns, 306262 nonzeros
Variable types: 0 continuous, 54227 integer (53353 binary)

Root relaxation: objective 1.416640e+05, 1079 iterations, 0.06 seconds

    Nodes    |    Current Node    |     Objective Bounds      |     Work
 Expl Unexpl |  Obj  Depth IntInf | Incumbent    BestBd   Gap | It/Node Time

     0     0 141664.000    0   64 254343.000 141664.000  44.3%     -    1s
H    0     0                    143904.00000 141664.000  1.56%     -    1s
H    0     0                    142832.00000 141664.000  0.82%     -    1s
H    0     0                    142059.00000 141664.000  0.28%     -    1s
     0     0 141871.944    0   36 142059.000 141871.944  0.13%     -    1s
     0     0 141871.944    0   74 142059.000 141871.944  0.13%     -    2s
     0     0 141871.944    0   66 142059.000 141871.944  0.13%     -    2s
     0     0 141910.889    0   43 142059.000 141910.889  0.10%     -    3s
     0     0 141925.667    0   37 142059.000 141925.667  0.09%     -    3s
     0     2 141944.667    0   33 142059.000 141944.667  0.08%     -    3s
H   10     8                    142029.00000 141986.778  0.03%   542    4s
H   10     7                    142028.00000 141986.778  0.03%   542    4s

Cutting planes:
  Gomory: 7
  Cover: 8
  Clique: 30
  MIR: 1
  Flow cover: 4
  GUB cover: 2
  Zero half: 1

Explored 15 nodes (8532 simplex iterations) in 4.76 seconds
Thread count was 1 (of 16 available processors)

Solution count 7: 142028 142029 142059 ... 254343
Pool objective bound 142016

Optimal solution found (tolerance 1.00e-04)
Best objective 1.420280000000e+05, best bound 1.420160000000e+05, gap 0.0084%
	MIPObjVal:	142028.0	runtime:	4.759284019470215	patientsNumber:	310	room Occupancy:	0.30444444444444446	OR Occupancy:	0.0
roomCost:	8050.0	genderPolicy:	100.0	transferCost:	0.0	delayCost:	65.0	overCrowdRisk:	3.0	overtime:	0.0	idleRoom:	21760.0	idleOR:	112050.0	eRoomIdle:	0.0	eORIdle:	0.0	roomU:	0.0	orU:	0.0
Day	11	Optimize a model with 3925 rows, 71713 columns and 429869 nonzeros
Variable types: 323 continuous, 71390 integer (70540 binary)
Coefficient statistics:
  Matrix range     [1e+00, 2e+02]
  Objective range  [1e+00, 2e+03]
  Bounds range     [1e+00, 1e+02]
  RHS range        [1e+00, 6e+03]
Found heuristic solution: objective 243910
Presolve removed 337 rows and 9281 columns
Presolve time: 0.80s
Presolved: 3588 rows, 62432 columns, 337236 nonzeros
Variable types: 0 continuous, 62432 integer (61607 binary)

Root relaxation: objective 1.297484e+05, 1022 iterations, 0.12 seconds

    Nodes    |    Current Node    |     Objective Bounds      |     Work
 Expl Unexpl |  Obj  Depth IntInf | Incumbent    BestBd   Gap | It/Node Time

     0     0 129748.368    0   88 243910.000 129748.368  46.8%     -    1s
H    0     0                    133366.00000 129748.368  2.71%     -    1s
H    0     0                    131173.00000 129748.368  1.09%     -    1s
H    0     0                    130220.00000 129748.368  0.36%     -    1s
     0     0 130023.168    0  100 130220.000 130023.168  0.15%     -    1s
     0     0 130047.800    0   81 130220.000 130047.800  0.13%     -    2s
     0     0 130048.657    0   67 130220.000 130048.657  0.13%     -    2s
     0     0 130048.657    0   72 130220.000 130048.657  0.13%     -    3s
     0     0 130048.657    0  120 130220.000 130048.657  0.13%     -    3s
     0     0 130062.133    0   78 130220.000 130062.133  0.12%     -    4s
     0     0 130083.733    0   54 130220.000 130083.733  0.10%     -    4s
     0     0 130084.567    0   58 130220.000 130084.567  0.10%     -    4s
     0     0 130097.740    0   62 130220.000 130097.740  0.09%     -    4s
     0     0 130115.112    0   70 130220.000 130115.112  0.08%     -    4s
     0     0 130119.948    0   62 130220.000 130119.948  0.08%     -    4s
H    0     0                    130205.00000 130119.948  0.07%     -    4s
H    0     0                    130200.00000 130119.948  0.06%     -    4s
H    0     0                    130165.00000 130119.948  0.03%     -    4s
     0     2 130130.026    0   62 130165.000 130130.026  0.03%     -    4s
     2     3 130130.026    0   67 130165.000 130130.026  0.03%   138    5s

Cutting planes:
  Gomory: 9
  Cover: 7
  Clique: 26
  MIR: 3
  Flow cover: 5
  GUB cover: 2
  Zero half: 3

Explored 7 nodes (6804 simplex iterations) in 5.09 seconds
Thread count was 1 (of 16 available processors)

Solution count 8: 130165 130200 130205 ... 243910
Pool objective bound 130153

Optimal solution found (tolerance 1.00e-04)
Best objective 1.301650000000e+05, best bound 1.301530000000e+05, gap 0.0092%
	MIPObjVal:	130165.0	runtime:	5.0903239250183105	patientsNumber:	321	room Occupancy:	0.4022222222222222	OR Occupancy:	0.21376872580373674
roomCost:	6760.0	genderPolicy:	150.0	transferCost:	0.0	delayCost:	70.0	overCrowdRisk:	5.0	overtime:	90.0	idleRoom:	14740.0	idleOR:	108350.0	eRoomIdle:	0.0	eORIdle:	0.0	roomU:	0.0	orU:	0.0
Day	12	Optimize a model with 3702 rows, 66520 columns and 353811 nonzeros
Variable types: 304 continuous, 66216 integer (65416 binary)
Coefficient statistics:
  Matrix range     [1e+00, 2e+02]
  Objective range  [1e+00, 2e+03]
  Bounds range     [1e+00, 1e+02]
  RHS range        [1e+00, 6e+03]
Found heuristic solution: objective 154516
Presolve removed 324 rows and 7666 columns
Presolve time: 0.76s
Presolved: 3378 rows, 58854 columns, 276380 nonzeros
Variable types: 0 continuous, 58854 integer (58087 binary)

Root relaxation: objective 7.035874e+04, 1024 iterations, 0.07 seconds

    Nodes    |    Current Node    |     Objective Bounds      |     Work
 Expl Unexpl |  Obj  Depth IntInf | Incumbent    BestBd   Gap | It/Node Time

     0     0 70358.7368    0   54 154516.000 70358.7368  54.5%     -    1s
H    0     0                    71510.000000 70358.7368  1.61%     -    1s
H    0     0                    71337.000000 70358.7368  1.37%     -    1s
H    0     0                    70879.000000 70358.7368  0.73%     -    1s
     0     0 70586.0702    0   51 70879.0000 70586.0702  0.41%     -    1s
H    0     0                    70862.000000 70586.0702  0.39%     -    1s
     0     0 70586.0702    0   49 70862.0000 70586.0702  0.39%     -    1s
     0     0 70622.0952    0   54 70862.0000 70622.0952  0.34%     -    1s
     0     0 70623.5238    0   71 70862.0000 70623.5238  0.34%     -    2s
     0     0 70637.5185    0   47 70862.0000 70637.5185  0.32%     -    2s
H    0     0                    70769.000000 70637.5185  0.19%     -    2s
H    0     0                    70679.000000 70637.5185  0.06%     -    2s
     0     0 70655.1111    0   34 70679.0000 70655.1111  0.03%     -    2s
     0     0 70659.2778    0   35 70679.0000 70659.2778  0.03%     -    2s
     0     0 70659.2778    0   31 70679.0000 70659.2778  0.03%     -    2s
     0     0 70668.4444    0   24 70679.0000 70668.4444  0.01%     -    2s
     0     0     cutoff    0      70679.0000 70679.0000  0.00%     -    2s

Cutting planes:
  Gomory: 3
  Cover: 4
  Clique: 36
  MIR: 4
  GUB cover: 1

Explored 0 nodes (2977 simplex iterations) in 2.80 seconds
Thread count was 1 (of 16 available processors)

Solution count 8: 70679 70679 70769 ... 154516
Pool objective bound 70679

Optimal solution found (tolerance 1.00e-04)
Best objective 7.067900000000e+04, best bound 7.067900000000e+04, gap 0.0000%
	MIPObjVal:	70679.0	runtime:	2.8011109828948975	patientsNumber:	310	room Occupancy:	0.5	OR Occupancy:	0.3602087190708635
roomCost:	5320.0	genderPolicy:	200.0	transferCost:	0.0	delayCost:	45.0	overCrowdRisk:	4.0	overtime:	150.0	idleRoom:	8660.0	idleOR:	56300.0	eRoomIdle:	0.0	eORIdle:	0.0	roomU:	0.0	orU:	0.0
Day	13	Optimize a model with 3452 rows, 44030 columns and 200601 nonzeros
Variable types: 285 continuous, 43745 integer (42995 binary)
Coefficient statistics:
  Matrix range     [1e+00, 2e+02]
  Objective range  [1e+00, 2e+03]
  Bounds range     [1e+00, 1e+02]
  RHS range        [1e+00, 6e+03]
Found heuristic solution: objective 84340
Presolve removed 337 rows and 8107 columns
Presolve time: 0.47s
Presolved: 3115 rows, 35923 columns, 135527 nonzeros
Variable types: 0 continuous, 35923 integer (35216 binary)

Root relaxation: objective 2.101144e+04, 519 iterations, 0.02 seconds

    Nodes    |    Current Node    |     Objective Bounds      |     Work
 Expl Unexpl |  Obj  Depth IntInf | Incumbent    BestBd   Gap | It/Node Time

     0     0 21011.4444    0   34 84340.0000 21011.4444  75.1%     -    0s
H    0     0                    22157.000000 21011.4444  5.17%     -    0s
H    0     0                    21782.000000 21011.4444  3.54%     -    0s
H    0     0                    21770.000000 21011.4444  3.48%     -    0s
H    0     0                    21515.000000 21011.4444  2.34%     -    0s
     0     0 21154.1053    0    9 21515.0000 21154.1053  1.68%     -    0s
H    0     0                    21362.000000 21154.1053  0.97%     -    0s
H    0     0                    21182.000000 21154.1053  0.13%     -    0s
     0     0 21172.0000    0    2 21182.0000 21172.0000  0.05%     -    0s
*    0     0               0    21172.000000 21172.0000  0.00%     -    1s

Cutting planes:
  Cover: 25
  Clique: 74
  MIR: 23

Explored 0 nodes (865 simplex iterations) in 1.02 seconds
Thread count was 1 (of 16 available processors)

Solution count 8: 21172 21182 21362 ... 84340
Pool objective bound 21172

Optimal solution found (tolerance 1.00e-04)
Best objective 2.117200000000e+04, best bound 2.117200000000e+04, gap 0.0000%
	MIPObjVal:	21172.0	runtime:	1.0245327949523926	patientsNumber:	272	room Occupancy:	0.5688888888888889	OR Occupancy:	0.7683891600740617
roomCost:	3030.0	genderPolicy:	100.0	transferCost:	0.0	delayCost:	80.0	overCrowdRisk:	2.0	overtime:	330.0	idleRoom:	3880.0	idleOR:	13750.0	eRoomIdle:	0.0	eORIdle:	0.0	roomU:	0.0	orU:	0.0
Violations:	0	Total ObjVal:	32992	Runtime:	0.0	Room occupancy ratio:	0.3588492	OR occupancy ratio:	0.2914983
The dynamic result in	./Results/FS2LowO/or_pas_dept4_short01_sol0.xml	violations:	0	total ObjVal:	32992	runtime:	75.454	average_patient_number:	266
